$instance size is  200
letting capacity be  35102
letting items be new type enum { 
a1,a2,a3,a4,a5,a6,a7,a8,a9,a10,a11,a12,a13,a14,a15,a16,a17,a18,a19,a20,a21,a22,a23,a24,a25,a26,a27,a28,a29,a30,a31,a32,a33,a34,a35,a36,a37,a38,a39,a40,a41,a42,a43,a44,a45,a46,a47,a48,a49,a50,a51,a52,a53,a54,a55,a56,a57,a58,a59,a60,a61,a62,a63,a64,a65,a66,a67,a68,a69,a70,a71,a72,a73,a74,a75,a76,a77,a78,a79,a80,a81,a82,a83,a84,a85,a86,a87,a88,a89,a90,a91,a92,a93,a94,a95,a96,a97,a98,a99,a100,a101,a102,a103,a104,a105,a106,a107,a108,a109,a110,a111,a112,a113,a114,a115,a116,a117,a118,a119,a120,a121,a122,a123,a124,a125,a126,a127,a128,a129,a130,a131,a132,a133,a134,a135,a136,a137,a138,a139,a140,a141,a142,a143,a144,a145,a146,a147,a148,a149,a150,a151,a152,a153,a154,a155,a156,a157,a158,a159,a160,a161,a162,a163,a164,a165,a166,a167,a168,a169,a170,a171,a172,a173,a174,a175,a176,a177,a178,a179,a180,a181,a182,a183,a184,a185,a186,a187,a188,a189,a190,a191,a192,a193,a194,a195,a196,a197,a198,a199,a200
}
letting weight be function (
a1 --> 576,a2 --> 168,a3 --> 864,a4 --> 126,a5 --> 105,a6 --> 192,a7 --> 105,a8 --> 210,a9 --> 288,a10 --> 63,a11 --> 960,a12 --> 126,a13 --> 126,a14 --> 168,a15 --> 384,a16 --> 960,a17 --> 84,a18 --> 210,a19 --> 147,a20 --> 84,a21 --> 960,a22 --> 126,a23 --> 147,a24 --> 288,a25 --> 288,a26 --> 63,a27 --> 126,a28 --> 960,a29 --> 288,a30 --> 384,a31 --> 288,a32 --> 168,a33 --> 189,a34 --> 672,a35 --> 864,a36 --> 168,a37 --> 288,a38 --> 126,a39 --> 864,a40 --> 21,a41 --> 768,a42 --> 960,a43 --> 864,a44 --> 63,a45 --> 105,a46 --> 576,a47 --> 147,a48 --> 147,a49 --> 96,a50 --> 189,a51 --> 864,a52 --> 147,a53 --> 21,a54 --> 189,a55 --> 42,a56 --> 192,a57 --> 126,a58 --> 42,a59 --> 864,a60 --> 189,a61 --> 210,a62 --> 126,a63 --> 672,a64 --> 21,a65 --> 105,a66 --> 96,a67 --> 126,a68 --> 210,a69 --> 189,a70 --> 21,a71 --> 288,a72 --> 672,a73 --> 768,a74 --> 63,a75 --> 960,a76 --> 864,a77 --> 96,a78 --> 147,a79 --> 21,a80 --> 672,a81 --> 960,a82 --> 63,a83 --> 21,a84 --> 168,a85 --> 576,a86 --> 576,a87 --> 672,a88 --> 960,a89 --> 210,a90 --> 480,a91 --> 42,a92 --> 42,a93 --> 960,a94 --> 21,a95 --> 576,a96 --> 768,a97 --> 288,a98 --> 480,a99 --> 864,a100 --> 864,a101 --> 126,a102 --> 192,a103 --> 210,a104 --> 96,a105 --> 960,a106 --> 672,a107 --> 84,a108 --> 192,a109 --> 63,a110 --> 864,a111 --> 126,a112 --> 96,a113 --> 21,a114 --> 105,a115 --> 768,a116 --> 21,a117 --> 288,a118 --> 126,a119 --> 672,a120 --> 105,a121 --> 147,a122 --> 96,a123 --> 168,a124 --> 147,a125 --> 768,a126 --> 960,a127 --> 84,a128 --> 168,a129 --> 84,a130 --> 576,a131 --> 768,a132 --> 21,a133 --> 576,a134 --> 63,a135 --> 576,a136 --> 480,a137 --> 21,a138 --> 63,a139 --> 63,a140 --> 960,a141 --> 864,a142 --> 84,a143 --> 63,a144 --> 384,a145 --> 210,a146 --> 84,a147 --> 864,a148 --> 960,a149 --> 21,a150 --> 63,a151 --> 768,a152 --> 96,a153 --> 126,a154 --> 21,a155 --> 576,a156 --> 576,a157 --> 864,a158 --> 105,a159 --> 864,a160 --> 288,a161 --> 960,a162 --> 168,a163 --> 126,a164 --> 768,a165 --> 105,a166 --> 147,a167 --> 576,a168 --> 192,a169 --> 288,a170 --> 210,a171 --> 576,a172 --> 288,a173 --> 672,a174 --> 147,a175 --> 384,a176 --> 192,a177 --> 126,a178 --> 864,a179 --> 63,a180 --> 864,a181 --> 960,a182 --> 63,a183 --> 480,a184 --> 960,a185 --> 189,a186 --> 63,a187 --> 672,a188 --> 288,a189 --> 480,a190 --> 189,a191 --> 288,a192 --> 21,a193 --> 147,a194 --> 84,a195 --> 288,a196 --> 480,a197 --> 147,a198 --> 192,a199 --> 147,a200 --> 864
)
letting gain be function (
a1 --> 708,a2 --> 1464,a3 --> 1062,a4 --> 1098,a5 --> 915,a6 --> 236,a7 --> 915,a8 --> 1830,a9 --> 354,a10 --> 549,a11 --> 1180,a12 --> 1098,a13 --> 1098,a14 --> 1464,a15 --> 472,a16 --> 1180,a17 --> 732,a18 --> 1830,a19 --> 1281,a20 --> 732,a21 --> 1180,a22 --> 1098,a23 --> 1281,a24 --> 354,a25 --> 354,a26 --> 549,a27 --> 1098,a28 --> 1180,a29 --> 354,a30 --> 472,a31 --> 354,a32 --> 1464,a33 --> 1647,a34 --> 826,a35 --> 1062,a36 --> 1464,a37 --> 354,a38 --> 1098,a39 --> 1062,a40 --> 183,a41 --> 944,a42 --> 1180,a43 --> 1062,a44 --> 549,a45 --> 915,a46 --> 708,a47 --> 1281,a48 --> 1281,a49 --> 118,a50 --> 1647,a51 --> 1062,a52 --> 1281,a53 --> 183,a54 --> 1647,a55 --> 366,a56 --> 236,a57 --> 1098,a58 --> 366,a59 --> 1062,a60 --> 1647,a61 --> 1830,a62 --> 1098,a63 --> 826,a64 --> 183,a65 --> 915,a66 --> 118,a67 --> 1098,a68 --> 1830,a69 --> 1647,a70 --> 183,a71 --> 354,a72 --> 826,a73 --> 944,a74 --> 549,a75 --> 1180,a76 --> 1062,a77 --> 118,a78 --> 1281,a79 --> 183,a80 --> 826,a81 --> 1180,a82 --> 549,a83 --> 183,a84 --> 1464,a85 --> 708,a86 --> 708,a87 --> 826,a88 --> 1180,a89 --> 1830,a90 --> 590,a91 --> 366,a92 --> 366,a93 --> 1180,a94 --> 183,a95 --> 708,a96 --> 944,a97 --> 354,a98 --> 590,a99 --> 1062,a100 --> 1062,a101 --> 1098,a102 --> 236,a103 --> 1830,a104 --> 118,a105 --> 1180,a106 --> 826,a107 --> 732,a108 --> 236,a109 --> 549,a110 --> 1062,a111 --> 1098,a112 --> 118,a113 --> 183,a114 --> 915,a115 --> 944,a116 --> 183,a117 --> 354,a118 --> 1098,a119 --> 826,a120 --> 915,a121 --> 1281,a122 --> 118,a123 --> 1464,a124 --> 1281,a125 --> 944,a126 --> 1180,a127 --> 732,a128 --> 1464,a129 --> 732,a130 --> 708,a131 --> 944,a132 --> 183,a133 --> 708,a134 --> 549,a135 --> 708,a136 --> 590,a137 --> 183,a138 --> 549,a139 --> 549,a140 --> 1180,a141 --> 1062,a142 --> 732,a143 --> 549,a144 --> 472,a145 --> 1830,a146 --> 732,a147 --> 1062,a148 --> 1180,a149 --> 183,a150 --> 549,a151 --> 944,a152 --> 118,a153 --> 1098,a154 --> 183,a155 --> 708,a156 --> 708,a157 --> 1062,a158 --> 915,a159 --> 1062,a160 --> 354,a161 --> 1180,a162 --> 1464,a163 --> 1098,a164 --> 944,a165 --> 915,a166 --> 1281,a167 --> 708,a168 --> 236,a169 --> 354,a170 --> 1830,a171 --> 708,a172 --> 354,a173 --> 826,a174 --> 1281,a175 --> 472,a176 --> 236,a177 --> 1098,a178 --> 1062,a179 --> 549,a180 --> 1062,a181 --> 1180,a182 --> 549,a183 --> 590,a184 --> 1180,a185 --> 1647,a186 --> 549,a187 --> 826,a188 --> 354,a189 --> 590,a190 --> 1647,a191 --> 354,a192 --> 183,a193 --> 1281,a194 --> 732,a195 --> 354,a196 --> 590,a197 --> 1281,a198 --> 236,a199 --> 1281,a200 --> 1062
)
